Name: Fis0506-2
Courses: 30
Rooms: 5
Days: 5
Periods_per_day: 9
Curricula: 13
Min_Max_Daily_Lectures: 2 6
UnavailabilityConstraints: 94
RoomConstraints: 17

COURSES:
c0006 t000 2 2 75 0
c0007 t001 2 2 75 0
c0008 t002 9 2 75 1
c0009 t003 7 2 75 1
c0017 t004 3 3 65 1
c0018 t005 9 2 65 1
c0019 t006 8 2 65 1
c0079 t007 6 4 11 1
c0081 t008 6 4 8 1
c0082 t009 5 4 11 1
c0083 t010 5 4 11 1
c0085 t011 5 4 11 1
c0026 t012 6 4 52 1
c0027 t013 6 4 52 1
c0028 t014 3 3 52 0
c0034 t015 6 4 11 1
c0036 t016 6 4 11 1
c0038 t017 6 4 33 1
c0040 t018 5 4 33 1
c0042 t001 5 4 11 0
c0044 t002 5 4 11 0
c0045 t019 6 4 33 0
c0107 t020 6 4 20 0
c0108 t004 9 2 20 1
c0109 t021 4 3 20 0
c0110 t000 7 2 25 1
c0111 t022 2 2 25 0
c0113 t003 3 3 50 0
c0115 t003 6 4 20 1
c0116 t023 4 3 20 1

ROOMS:
rC 100 1
rF 30 1
rG 20 0
rO 12 0
rLUF2 60 0

CURRICULA:
q000 4 c0006 c0007 c0008 c0009 
q001 3 c0017 c0018 c0019 
q002 4 c0026 c0027 c0028 c0079 
q003 4 c0026 c0027 c0028 c0085 
q004 4 c0026 c0027 c0028 c0083 
q005 4 c0026 c0027 c0028 c0081 
q006 4 c0026 c0027 c0028 c0082 
q007 4 c0038 c0045 c0040 c0044 
q008 5 c0038 c0045 c0040 c0034 c0042 
q009 4 c0038 c0045 c0040 c0036 
q010 2 c0107 c0108 
q011 3 c0109 c0115 c0116 
q012 3 c0110 c0111 c0113 

UNAVAILABILITY_CONSTRAINTS:
c0006 4 0 
c0006 4 1 
c0006 4 2 
c0006 4 3 
c0006 4 4 
c0006 4 5 
c0006 4 6 
c0006 4 7 
c0006 4 8 
c0007 0 0 
c0007 0 1 
c0007 0 2 
c0007 0 3 
c0007 0 4 
c0007 0 5 
c0007 0 6 
c0007 0 7 
c0007 0 8 
c0026 3 0 
c0026 3 1 
c0026 3 2 
c0026 3 3 
c0026 3 4 
c0026 3 5 
c0026 3 6 
c0026 3 7 
c0026 3 8 
c0009 2 2 
c0009 2 3 
c0009 2 4 
c0009 2 5 
c0009 3 0 
c0009 3 1 
c0009 3 2 
c0009 3 3 
c0009 3 4 
c0009 3 5 
c0038 3 2 
c0038 3 3 
c0038 3 4 
c0038 3 5 
c0038 4 2 
c0038 4 3 
c0038 4 4 
c0038 4 5 
c0085 0 7 
c0085 1 7 
c0085 2 7 
c0085 3 7 
c0085 4 7 
c0085 0 8 
c0085 1 8 
c0085 2 8 
c0085 3 8 
c0085 4 8 
c0113 0 0 
c0113 1 0 
c0113 2 0 
c0113 3 0 
c0113 4 0 
c0113 0 1 
c0113 1 1 
c0113 2 1 
c0113 3 1 
c0113 4 1 
c0113 0 2 
c0113 1 2 
c0113 2 2 
c0113 3 2 
c0113 4 2 
c0113 0 3 
c0113 1 3 
c0113 2 3 
c0113 3 3 
c0113 4 3 
c0115 0 3 
c0115 1 3 
c0115 2 3 
c0115 3 3 
c0115 4 3 
c0115 0 4 
c0115 1 4 
c0115 2 4 
c0115 3 4 
c0115 4 4 
c0115 0 5 
c0115 1 5 
c0115 2 5 
c0115 3 5 
c0115 4 5 
c0116 0 0 
c0116 0 1 
c0116 4 7 
c0116 4 8 

ROOM_CONSTRAINTS:
c0007 rG
c0018 rO
c0079 rC
c0081 rG
c0083 rO
c0085 rO
c0034 rG
c0038 rG
c0042 rC
c0044 rF
c0044 rLUF2
c0107 rC
c0107 rG
c0109 rC
c0111 rC
c0115 rC
c0116 rG

END.
